c numero: 6
c nombre: n-20-d-0.3
c densidad: 0.3
p edges 20 63
e 1 3
e 1 10
e 1 11
e 1 12
e 1 15
e 1 19
e 2 3
e 2 4
e 2 5
e 2 6
e 2 8
e 2 12
e 2 13
e 2 16
e 2 18
e 3 10
e 3 12
e 4 6
e 4 7
e 4 8
e 4 11
e 4 13
e 4 18
e 4 19
e 5 9
e 5 10
e 5 17
e 5 19
e 6 8
e 6 10
e 6 19
e 6 20
e 7 8
e 7 11
e 7 13
e 7 14
e 7 17
e 8 12
e 8 15
e 9 11
e 9 14
e 9 17
e 10 11
e 10 12
e 10 13
e 10 15
e 10 17
e 11 12
e 11 19
e 12 15
e 12 16
e 12 18
e 12 19
e 13 15
e 13 18
e 13 20
e 14 16
e 14 20
e 15 17
e 15 19
e 15 20
e 18 20
e 19 20
